 ! --------------------------------------------------- CP Optimizer 22.1.1.0 --
 ! Satisfiability problem - 47000 variables, 604952 constraints
 ! Presolve      : 28800 extractables eliminated
 ! TimeLimit            = 3600
 ! Workers              = 1
 ! Initial process time : 5.21s (5.20s extraction + 0.02s propagation)
 !  . Log search space  : 482835.1 (before), 482835.1 (after)
 !  . Memory usage      : 364.6 MB (before), 364.6 MB (after)
 ! Using sequential search.
 ! ----------------------------------------------------------------------------
 !               Branches  Non-fixed            Branch decision
                     1117      46243        F          presenceOf(copy_trips:33_10)
                     2061      46305        F          presenceOf(copy_trips:39_0)
                     3000      30383                   presenceOf(copy_trips:2_153)
                     4000      16326                   presenceOf(copy_lane_parking:1_284)
                     5000      41791        F         !presenceOf(copy_trips:22_0)
                     6000      27065                  !presenceOf(copy_bus_parking:5_3)
                     7000      27063        F         !presenceOf(copy_trips:8_0)
                     8000      40548                  !presenceOf(copy_bus_parking:5_4)
                     9000      32745        F          presenceOf(copy_trips:35_18)
                    10000      30433                  !presenceOf(copy_bus_parking:3_246)
                    11000      30433                  !presenceOf(copy_trips:20_41)
                    12000      33354                   presenceOf(copy_lane_parking:2_159)
                    13000      34591                   presenceOf(copy_lane_parking:3_272)
                    14000      29784        F          presenceOf(copy_trips:7_357)
                    15000      29787        F          presenceOf(copy_trips:7_357)
                    16000      29787                   presenceOf(copy_trips:33_357)
                    17000      29790                   presenceOf(copy_bus_parking:32_202)
                    18000      16323                   presenceOf(copy_bus_parking:19_163)
                    19000      21060                  !presenceOf(copy_trips:17_274)
                    20000      30430                   presenceOf(copy_lane_parking:4_180)
 ! Time = 34.58s, Average fail depth = 406, Memory usage = 1.2 GB
 !               Branches  Non-fixed            Branch decision
                    21000      31618                   presenceOf(copy_trips:3_288)
                    22000      25511                   presenceOf(copy_trips:31_87)
                    23000      21616                   presenceOf(copy_lane_parking:2_220)
                    24000      23102                  !presenceOf(copy_trips:17_47)
                    25000      23244                   presenceOf(copy_bus_parking:24_20)
                    26000      22963                  !presenceOf(copy_bus_parking:8_20)
                    27000      23067        F          presenceOf(copy_bus_parking:8_5)
                    28000      39886                   presenceOf(copy_trips:9_2)
                    29000      39886                  !presenceOf(copy_trips:1_2)
                    30000      39884        F         !presenceOf(copy_trips:1_0)
                    31000      39886        F          presenceOf(copy_trips:0_7)
                    32000      39963                  !presenceOf(copy_trips:1_0)
                    33000      39922                  !presenceOf(copy_trips:2_7)
                    34000      39922        F          presenceOf(copy_bus_parking:16_6)
                    35000      39883        F         !presenceOf(copy_trips:2_7)
                    36000      39886                  !presenceOf(copy_bus_parking:0_1)
                    37000      39884        F          presenceOf(copy_trips:9_7)
                    38000      39886                   presenceOf(copy_trips:9_2)
                    39000      39910        F          presenceOf(copy_bus_parking:1_3)
                    40000      39963                   presenceOf(copy_lane_parking:2_80)
 ! Time = 55.12s, Average fail depth = 412, Memory usage = 1.2 GB
 !               Branches  Non-fixed            Branch decision
                    41000      33046                   presenceOf(copy_trips:38_270)
                    42000      29808        F          presenceOf(copy_trips:0_49)
                    43000      35351                   presenceOf(copy_lane_parking:0_82)
                    44000      21372            247 != endOf(start_parking:9)
                    45000      15972                   presenceOf(copy_trips:8_240)
                    46000      15975                   presenceOf(copy_lane_parking:6_5)
                    47000      27234        F          presenceOf(copy_trips:21_0)
                    48000      27234                   presenceOf(copy_bus_parking:2_44)
                    49000      33677                   presenceOf(copy_lane_parking:2_40)
                    50000      39998                   presenceOf(copy_trips:10_7)
                    51000      39998                  !presenceOf(copy_bus_parking:18_16)
                    52000      39998                  !presenceOf(copy_trips:3_7)
                    53000      16317        F          presenceOf(copy_trips:12_267)
                    54000      16317        F          presenceOf(copy_trips:14_245)
                    55000      30432                   presenceOf(copy_lane_parking:4_11)
                    56000      15955        F          presenceOf(copy_bus_parking:7_243)
                    57000      15955        F          presenceOf(copy_bus_parking:22_357)
                    58000      21375        F          presenceOf(copy_trips:29_49)
                    59000      21375                   presenceOf(copy_lane_parking:0_270)
                    60000      16196        F          presenceOf(copy_bus_parking:13_249)
 ! Time = 87.92s, Average fail depth = 415, Memory usage = 1.2 GB
 !               Branches  Non-fixed            Branch decision
                    61000      16196                   presenceOf(copy_lane_parking:3_67)
                    62000      29802        F          presenceOf(copy_bus_parking:13_357)
                    63000      29781        F          presenceOf(copy_bus_parking:31_357)
                    64000      29763                  !presenceOf(copy_bus_parking:23_355)
                    65000      29763                  !presenceOf(copy_bus_parking:8_357)
                    66000      29775                  !presenceOf(copy_bus_parking:6_356)
                    67000      29787        F          presenceOf(copy_trips:31_355)
                    68000      29784        F          presenceOf(copy_trips:28_355)
                    69000      29790        F          presenceOf(copy_trips:4_355)
                    70000      29784                  !presenceOf(copy_bus_parking:1_356)
                    71000      29784                  !presenceOf(copy_bus_parking:21_356)
                    72000      29784                  !presenceOf(copy_bus_parking:4_356)
                    73000      29787                  !presenceOf(copy_bus_parking:28_265)
                    74000      29784                  !presenceOf(copy_bus_parking:11_356)
                    75000      29787        F          presenceOf(copy_trips:4_355)
                    76000      29787        F          presenceOf(copy_trips:10_355)
                    77000      29784        F          presenceOf(copy_trips:5_355)
                    78000      29787        F          presenceOf(copy_trips:35_355)
                    79000      29790                   presenceOf(copy_lane_parking:4_295)
                    80000      39998        F          presenceOf(copy_trips:19_14)
 ! Time = 102.42s, Average fail depth = 428, Memory usage = 1.2 GB
 !               Branches  Non-fixed            Branch decision
                    81000      33091        F          presenceOf(copy_trips:14_18)
                    82000      33079        F          presenceOf(copy_trips:29_18)
                    83000      33021        F          presenceOf(copy_trips:12_18)
                    84000      33021        F          presenceOf(copy_trips:3_18)
                    85000      33005        F          presenceOf(copy_trips:13_18)
                    86000      33018        F          presenceOf(copy_trips:14_18)
                    87000      33091                  !presenceOf(copy_trips:37_43)
                    88000      33079        F          presenceOf(copy_trips:1_26)
                    89000      33082        F          presenceOf(copy_trips:14_18)
                    90000      33091        F          presenceOf(copy_trips:13_18)
                    91000      33079        F          presenceOf(copy_trips:35_18)
                    92000      33079        F          presenceOf(copy_trips:12_18)
                    93000      33088        F          presenceOf(copy_trips:34_18)
                    94000      33076        F          presenceOf(copy_trips:37_18)
                    95000      33076        F          presenceOf(copy_trips:29_18)
                    96000      33085        F          presenceOf(copy_trips:38_18)
                    97000      33088        F          presenceOf(copy_trips:35_18)
                    98000      33076                  !presenceOf(copy_trips:16_18)
                    99000      33079                  !presenceOf(copy_trips:0_18)
                     100k      33079        F          presenceOf(copy_trips:10_18)
 ! Time = 141.51s, Average fail depth = 432, Memory usage = 1.2 GB
 !               Branches  Non-fixed            Branch decision
                     101k      32960        F          presenceOf(copy_trips:36_18)
                     102k      32915        F          presenceOf(copy_trips:9_18)
                     103k      32915                  !presenceOf(copy_trips:16_18)
                     104k      32919        F          presenceOf(copy_trips:2_18)
                     105k      32907        F          presenceOf(copy_trips:32_18)
                     106k      33079        F          presenceOf(copy_trips:28_18)
                     107k      33088        F          presenceOf(copy_trips:36_18)
                     108k      32992        F          presenceOf(copy_trips:34_18)
                     109k      32961        F          presenceOf(copy_trips:18_18)
                     110k      32949        F          presenceOf(copy_trips:2_18)
                     111k      32949        F          presenceOf(copy_trips:3_18)
                     112k      33065        F          presenceOf(copy_trips:2_18)
                     113k      33053        F          presenceOf(copy_trips:29_18)
                     114k      33053        F          presenceOf(copy_trips:25_18)
                     115k      33088        F          presenceOf(copy_trips:0_18)
                     116k      33076                  !presenceOf(copy_trips:9_43)
                     117k      32958        F          presenceOf(copy_trips:29_18)
                     118k      32927                  !presenceOf(copy_trips:16_18)
                     119k      32927                  !presenceOf(copy_trips:32_18)
                     120k      32946                  !presenceOf(copy_trips:37_18)
 ! Time = 180.13s, Average fail depth = 434, Memory usage = 1.2 GB
 !               Branches  Non-fixed            Branch decision
                     121k      32916                  !presenceOf(copy_trips:29_18)
                     122k      32907                  !presenceOf(copy_trips:32_18)
                     123k      32907        F          presenceOf(copy_trips:14_18)
                     124k      33079        F          presenceOf(copy_trips:29_18)
                     125k      33021        F          presenceOf(copy_trips:12_18)
                     126k      33021        F          presenceOf(copy_trips:3_18)
                     127k      33005        F          presenceOf(copy_trips:13_18)
                     128k      33018        F          presenceOf(copy_trips:36_18)
                     129k      33079                  !presenceOf(copy_trips:14_43)
                     130k      33076        F          presenceOf(copy_trips:27_18)
                     131k      33082        F          presenceOf(copy_trips:12_18)
                     132k      33094                   presenceOf(copy_lane_parking:3_32)
                     133k      25276            247 != endOf(start_parking:32)
                     134k      16323        F          presenceOf(copy_bus_parking:11_267)
                     135k      16323        F          presenceOf(copy_bus_parking:16_357)
                     136k      29870        F         !presenceOf(start_parking:18)
                     137k      41549                   presenceOf(copy_bus_parking:35_344)
                     138k      29811                   presenceOf(copy_lane_parking:7_162)
                     139k      30359                   presenceOf(copy_lane_parking:7_51)
                     140k      33885                  !presenceOf(copy_trips:21_67)
 ! Time = 216.47s, Average fail depth = 429, Memory usage = 1.2 GB
 !               Branches  Non-fixed            Branch decision
                     141k      33885                  !presenceOf(copy_trips:1_67)
                     142k      33885        F          presenceOf(copy_bus_parking:12_41)
                     143k      29790                  !presenceOf(copy_bus_parking:21_355)
                     144k      29790                  !presenceOf(copy_bus_parking:11_3)
                     145k      40332                  !presenceOf(copy_trips:35_0)
                     146k      30242        F          presenceOf(copy_bus_parking:18_267)
                     147k      30142                  !presenceOf(copy_trips:18_29)
                     148k      36521                   presenceOf(copy_lane_parking:6_72)
                     149k      21063                   presenceOf(copy_lane_parking:1_31)
                     150k      15962                  !presenceOf(copy_trips:17_243)
                     151k      15962                   presenceOf(copy_lane_parking:3_207)
                     152k      37121        F          presenceOf(copy_bus_parking:2_0)
                     153k      40666                   presenceOf(copy_lane_parking:6_294)
                     154k      16230        F          presenceOf(copy_trips:34_245)
                     155k      16230        F          presenceOf(copy_trips:34_249)
                     156k      16230        F          presenceOf(copy_bus_parking:29_246)
                     157k      16230        F          presenceOf(copy_trips:0_265)
                     158k      29790        F         !presenceOf(copy_trips:19_16)
                     159k      32546                   presenceOf(copy_lane_parking:3_38)
                     160k      25989                   presenceOf(copy_lane_parking:6_112)
 ! Time = 243.71s, Average fail depth = 430, Memory usage = 1.2 GB
 !               Branches  Non-fixed            Branch decision
                     161k      34306        F          presenceOf(copy_bus_parking:19_67)
                     162k      31009        F          presenceOf(copy_bus_parking:36_346)
                     163k      29799        F          presenceOf(copy_trips:6_356)
                     164k      29799            on charge:2_31
                     165k      21345                  !presenceOf(copy_bus_parking:18_46)
                     166k      21345                  !presenceOf(copy_bus_parking:4_7)
                     167k      24297                  !presenceOf(copy_bus_parking:0_18)
                     168k      24288        F          presenceOf(copy_bus_parking:14_47)
                     169k      24297                   presenceOf(copy_lane_parking:0_28)
                     170k      39915            on charge:32_5
                     171k      24675                   presenceOf(copy_lane_parking:5_144)
                     172k      27233                   presenceOf(copy_lane_parking:6_274)
                     173k      40805                   presenceOf(copy_bus_parking:36_335)
                     174k      30354        F          presenceOf(copy_trips:1_1)
                     175k      32118                   presenceOf(copy_lane_parking:3_58)
                     176k      40990                   presenceOf(copy_lane_parking:0_119)
                     177k      16265        F          presenceOf(copy_bus_parking:26_256)
                     178k      16265        F          presenceOf(copy_bus_parking:31_246)
                     179k      16265        F          presenceOf(copy_bus_parking:26_253)
                     180k      16265                   presenceOf(copy_lane_parking:2_115)
 ! Time = 269.71s, Average fail depth = 433, Memory usage = 1.2 GB
 !               Branches  Non-fixed            Branch decision
                     181k      23806                   presenceOf(copy_lane_parking:4_20)
                     182k      27881                  !presenceOf(copy_bus_parking:38_2)
                     183k      27881        F          presenceOf(copy_trips:30_3)
                     184k      27881                  !presenceOf(copy_bus_parking:26_2)
                     185k      27881        F          presenceOf(copy_trips:30_3)
                     186k      27881                  !presenceOf(copy_bus_parking:33_2)
                     187k      27881                  !presenceOf(copy_bus_parking:32_2)
                     188k      27881        F          presenceOf(copy_trips:2_3)
                     189k      27881        F          presenceOf(copy_trips:2_3)
                     190k      26218                  !presenceOf(copy_bus_parking:29_10)
                     191k      26042        F          presenceOf(copy_bus_parking:6_10)
                     192k      26073        F         !presenceOf(copy_bus_parking:6_10)
                     193k      25757        F          presenceOf(copy_bus_parking:7_12)
                     194k      25757        F          presenceOf(copy_trips:30_15)
                     195k      26076                   presenceOf(copy_lane_parking:4_87)
                     196k      24729                   presenceOf(copy_lane_parking:7_132)
                     197k      19516                  !presenceOf(copy_trips:10_186)
                     198k       9982           3313 != startOf(charge:23_240)
                     199k       9981        F          presenceOf(copy_trips:3_274)
                     200k      16257            on charge:28_65
 ! Time = 295.29s, Average fail depth = 441, Memory usage = 1.3 GB
 !               Branches  Non-fixed            Branch decision
                     201k      16326        F          presenceOf(copy_trips:16_267)
                     202k      16326                   presenceOf(copy_lane_parking:4_252)
                     203k      36518                   presenceOf(copy_lane_parking:3_346)
                     204k      30359                  !presenceOf(copy_trips:11_7)
                     205k      34624        F          presenceOf(copy_trips:9_67)
                     206k      32229                  !presenceOf(copy_bus_parking:7_3)
                     207k      29120                   presenceOf(copy_bus_parking:7_103)
                     208k      21176                  !presenceOf(copy_trips:30_13)
                     209k      28475                  !presenceOf(copy_trips:17_132)
                     210k      28481                   presenceOf(copy_lane_parking:3_184)
                     211k      31964        F          presenceOf(copy_bus_parking:39_38)
                     212k      31964        F          presenceOf(copy_trips:8_22)
                     213k      31967        F          presenceOf(copy_bus_parking:22_38)
                     214k      31967                   presenceOf(copy_trips:29_56)
                     215k      32543                  !presenceOf(copy_trips:27_29)
                     216k      32543        F          presenceOf(copy_bus_parking:20_30)
                     217k      33024                  !presenceOf(copy_lane_parking:6_70)
                     218k      29487                  !presenceOf(copy_trips:5_84)
                     219k      24856                   presenceOf(copy_lane_parking:2_244)
                     220k      22172        F          presenceOf(copy_bus_parking:16_47)
 ! Time = 332.22s, Average fail depth = 437, Memory usage = 1.3 GB
 !               Branches  Non-fixed            Branch decision
                     221k      22088                  !presenceOf(copy_trips:0_22)
                     222k      22085        F          presenceOf(copy_trips:23_39)
                     223k      22215        F          presenceOf(copy_bus_parking:6_113)
                     224k      22088                  !presenceOf(copy_trips:6_22)
                     225k      22127        F          presenceOf(copy_bus_parking:0_47)
                     226k      22088        F          presenceOf(copy_bus_parking:20_47)
                     227k      22085        F          presenceOf(copy_trips:0_10)
                     228k      22178                  !presenceOf(copy_trips:6_22)
                     229k      22088                  !presenceOf(copy_trips:18_39)
                     230k      22151        F          presenceOf(copy_bus_parking:23_47)
                     231k      22058        F          presenceOf(copy_bus_parking:31_47)
                     232k      22077                  !presenceOf(copy_trips:24_17)
                     233k      22241        F         !presenceOf(start_parking:16)
                     234k      31944        F          presenceOf(copy_trips:12_27)
                     235k      25045        F          presenceOf(copy_trips:33_19)
                     236k      24503                  !presenceOf(copy_lane_parking:2_126)
                     237k      24503        F          presenceOf(copy_trips:36_164)
                     238k      24503        F          presenceOf(copy_trips:30_164)
                     239k      21179                  !presenceOf(copy_bus_parking:31_49)
                     240k      21179                   presenceOf(copy_lane_parking:4_337)
 ! Time = 354.22s, Average fail depth = 440, Memory usage = 1.3 GB
 !               Branches  Non-fixed            Branch decision
                     241k      28654        F          presenceOf(copy_bus_parking:0_3)
                     242k      28654        F          presenceOf(copy_bus_parking:31_3)
                     243k      28354        F         !presenceOf(copy_trips:2_2)
                     244k      26637                   presenceOf(copy_trips:32_56)
                     245k      24894                   presenceOf(copy_trips:4_67)
                     246k      27246            on charge:22_24
                     247k      24729        F         !presenceOf(copy_trips:12_156)
                     248k      24729        F          presenceOf(copy_trips:1_156)
                     249k      24729                   presenceOf(copy_trips:21_158)
                     250k      24729        F         !presenceOf(copy_trips:34_156)
                     251k      24729            on charge:21_123
                     252k      24729           1568  = startOf(charge:5_116)
                     253k      24729                  !presenceOf(copy_trips:34_156)
                     254k      24729        F          presenceOf(copy_trips:34_156)
                     255k      24729                  !presenceOf(copy_trips:12_158)
                     256k      24729        F          presenceOf(copy_trips:12_158)
                     257k      24729                  !presenceOf(copy_trips:34_156)
                     258k      24729                  !presenceOf(copy_trips:34_158)
                     259k      24729                   presenceOf(copy_lane_parking:3_32)
                     260k      30428                  !presenceOf(copy_trips:11_253)
 ! Time = 380.99s, Average fail depth = 442, Memory usage = 1.3 GB
 !               Branches  Non-fixed            Branch decision
                     261k      30428                  !presenceOf(copy_trips:11_253)
                     262k      30428                  !presenceOf(copy_trips:11_253)
                     263k      30428                  !presenceOf(copy_trips:38_246)
                     264k      30428                  !presenceOf(copy_trips:11_253)
                     265k      30428                  !presenceOf(copy_trips:18_245)
                     266k      30428        F          presenceOf(copy_trips:3_253)
                     267k      30428                  !presenceOf(copy_trips:18_245)
                     268k      30428        F          presenceOf(copy_bus_parking:11_256)
                     269k      30428                   presenceOf(copy_bus_parking:27_256)
                     270k      30428        F         !presenceOf(copy_trips:11_245)
                     271k      30428                   presenceOf(copy_bus_parking:27_256)
                     272k      30428        F          presenceOf(copy_trips:2_253)
                     273k      30428                   presenceOf(copy_lane_parking:4_5)
                     274k      29690                   presenceOf(copy_lane_parking:2_273)
                     275k      22799                  !presenceOf(copy_bus_parking:2_32)
                     276k      22791        F          presenceOf(copy_bus_parking:38_32)
                     277k      22791        F          presenceOf(copy_bus_parking:5_106)
                     278k      22791                   presenceOf(copy_trips:4_69)
                     279k      36339                   presenceOf(copy_lane_parking:4_279)
                     280k      34790                   presenceOf(copy_lane_parking:3_136)
 ! Time = 405.01s, Average fail depth = 442, Memory usage = 1.3 GB
 !               Branches  Non-fixed            Branch decision
                     281k      29790                   presenceOf(copy_lane_parking:0_295)
                     282k      33677                  !presenceOf(copy_bus_parking:2_26)
                     283k      33677        F          presenceOf(copy_bus_parking:2_41)
                     284k      33677                  !presenceOf(copy_bus_parking:13_26)
                     285k      33677            on charge:18_18
                     286k      16323                  !presenceOf(copy_bus_parking:18_267)
                     287k      16323                  !presenceOf(copy_trips:2_124)
                     288k      23221                  !presenceOf(copy_bus_parking:12_356)
                     289k      29811                   presenceOf(copy_trips:3_97)
                     290k      20859                   presenceOf(copy_lane_parking:0_190)
                     291k       7587                   presenceOf(copy_trips:3_308)
 *                   291k  423.63s                   -
 ! ----------------------------------------------------------------------------
 ! Search completed, 1 solution found.
 ! ----------------------------------------------------------------------------
 ! Number of branches     : 291696
 ! Number of fails        : 116472
 ! Total memory usage     : 1.4 GB (1.3 GB CP Optimizer + 0.0 GB Concert)
 ! Time spent in solve    : 423.63s (418.44s engine + 5.20s extraction)
 ! Search speed (br. / s) : 697.1
 ! ----------------------------------------------------------------------------
